NAME : XML100_1265_22
DIMENSION : 101
NB_CLUSTERS : 4
CLUSTERING_ALG : KMedoids
CLUSTERING_PARAMS : k(3)
CLUSTERS
1 0
2 6 10 15 24 32 35 36 38 43 44 53 54 55 57 62 64 65 68 72 75 79 87 100
3 3 5 7 8 9 14 17 23 30 31 33 37 39 41 42 46 48 50 58 59 60 71 76 82 83 86 90 92 93 95
4 1 2 4 11 12 13 16 18 19 20 21 22 25 26 27 28 29 34 40 45 47 49 51 52 56 61 63 66 67 69 70 73 74 77 78 80 81 84 85 88 89 91 94 96 97 98 99
EOF